; SPDX-License-Identifier: MPL-2.0
; Copyright (c) 2026 The RIINA Authors.
; Auto-generated from 02_FORMAL/coq/domains/security_foundation/SensorDrivers.v (22 validations)
; Generated by scripts/generate-full-stack.py
;
; Translation Validation for SensorDrivers
; Layer 9: Verifies compiler backend preserves formal semantics.
; Each assertion checks source IR ≡ target code for a proven property.

(set-logic QF_LIA)
(set-option :produce-models true)

; IR node representation
(declare-sort IRNode 0)
(declare-sort TargetNode 0)

; has_sensor_permission: source semantics (matches Coq)
(declare-fun source_has_sensor_permission () Bool)
(declare-fun target_has_sensor_permission () Bool)
(assert (= source_has_sensor_permission target_has_sensor_permission))

; uses_camera: source semantics (matches Coq)
(declare-fun source_uses_camera () Bool)
(declare-fun target_uses_camera () Bool)
(assert (= source_uses_camera target_uses_camera))

; uses_microphone: source semantics (matches Coq)
(declare-fun source_uses_microphone () Bool)
(declare-fun target_uses_microphone () Bool)
(assert (= source_uses_microphone target_uses_microphone))

; indicator_visible: source semantics (matches Coq)
(declare-fun source_indicator_visible () Bool)
(declare-fun target_indicator_visible () Bool)
(assert (= source_indicator_visible target_indicator_visible))

; rate_limit_ok: source semantics (matches Coq)
(declare-fun source_rate_limit_ok () Bool)
(declare-fun target_rate_limit_ok () Bool)
(assert (= source_rate_limit_ok target_rate_limit_ok))

; rate_limit_exceeded: source semantics (matches Coq)
(declare-fun source_rate_limit_exceeded () Bool)
(declare-fun target_rate_limit_exceeded () Bool)
(assert (= source_rate_limit_exceeded target_rate_limit_exceeded))

; sensor_access_controlled: translation preserves property (matches Coq: Theorem)
(declare-fun source_sensor_access_controlled () Bool)
(declare-fun target_sensor_access_controlled () Bool)
(assert (= source_sensor_access_controlled target_sensor_access_controlled))

; recording_indicator_mandatory: translation preserves property (matches Coq: Theorem)
(declare-fun source_recording_indicator_mandatory () Bool)
(declare-fun target_recording_indicator_mandatory () Bool)
(assert (= source_recording_indicator_mandatory target_recording_indicator_mandatory))

; no_permission_no_sensor: translation preserves property (matches Coq: Theorem)
(declare-fun source_no_permission_no_sensor () Bool)
(declare-fun target_no_permission_no_sensor () Bool)
(assert (= source_no_permission_no_sensor target_no_permission_no_sensor))

; camera_requires_camera_perm: translation preserves property (matches Coq: Theorem)
(declare-fun source_camera_requires_camera_perm () Bool)
(declare-fun target_camera_requires_camera_perm () Bool)
(assert (= source_camera_requires_camera_perm target_camera_requires_camera_perm))

; gps_requires_location_perm: translation preserves property (matches Coq: Theorem)
(declare-fun source_gps_requires_location_perm () Bool)
(declare-fun target_gps_requires_location_perm () Bool)
(assert (= source_gps_requires_location_perm target_gps_requires_location_perm))

; rate_limit_blocks_excess: translation preserves property (matches Coq: Theorem)
(declare-fun source_rate_limit_blocks_excess () Bool)
(declare-fun target_rate_limit_blocks_excess () Bool)
(assert (= source_rate_limit_blocks_excess target_rate_limit_blocks_excess))

; microphone_requires_mic_perm: translation preserves property (matches Coq: Theorem)
(declare-fun source_microphone_requires_mic_perm () Bool)
(declare-fun target_microphone_requires_mic_perm () Bool)
(assert (= source_microphone_requires_mic_perm target_microphone_requires_mic_perm))

; accelerometer_requires_motion_perm: translation preserves property (matches Coq: Theorem)
(declare-fun source_accelerometer_requires_motion_perm () Bool)
(declare-fun target_accelerometer_requires_motion_perm () Bool)
(assert (= source_accelerometer_requires_motion_perm target_accelerometer_requires_motion_perm))

; gyroscope_requires_motion_perm: translation preserves property (matches Coq: Theorem)
(declare-fun source_gyroscope_requires_motion_perm () Bool)
(declare-fun target_gyroscope_requires_motion_perm () Bool)
(assert (= source_gyroscope_requires_motion_perm target_gyroscope_requires_motion_perm))

; no_permissions_no_sensors: translation preserves property (matches Coq: Theorem)
(declare-fun source_no_permissions_no_sensors () Bool)
(declare-fun target_no_permissions_no_sensors () Bool)
(assert (= source_no_permissions_no_sensors target_no_permissions_no_sensors))

; indicators_independent: translation preserves property (matches Coq: Theorem)
(declare-fun source_indicators_independent () Bool)
(declare-fun target_indicators_independent () Bool)
(assert (= source_indicators_independent target_indicators_independent))

; mic_indicator_when_active: translation preserves property (matches Coq: Theorem)
(declare-fun source_mic_indicator_when_active () Bool)
(declare-fun target_mic_indicator_when_active () Bool)
(assert (= source_mic_indicator_when_active target_mic_indicator_when_active))

; cam_indicator_when_active: translation preserves property (matches Coq: Theorem)
(declare-fun source_cam_indicator_when_active () Bool)
(declare-fun target_cam_indicator_when_active () Bool)
(assert (= source_cam_indicator_when_active target_cam_indicator_when_active))

; both_sensors_both_indicators: translation preserves property (matches Coq: Theorem)
(declare-fun source_both_sensors_both_indicators () Bool)
(declare-fun target_both_sensors_both_indicators () Bool)
(assert (= source_both_sensors_both_indicators target_both_sensors_both_indicators))

; no_active_no_indicator_required: translation preserves property (matches Coq: Theorem)
(declare-fun source_no_active_no_indicator_required () Bool)
(declare-fun target_no_active_no_indicator_required () Bool)
(assert (= source_no_active_no_indicator_required target_no_active_no_indicator_required))

; sensor_perm_type_specific: translation preserves property (matches Coq: Theorem)
(declare-fun source_sensor_perm_type_specific () Bool)
(declare-fun target_sensor_perm_type_specific () Bool)
(assert (= source_sensor_perm_type_specific target_sensor_perm_type_specific))

; camera_perm_not_mic: translation preserves property (matches Coq: Theorem)
(declare-fun source_camera_perm_not_mic () Bool)
(declare-fun target_camera_perm_not_mic () Bool)
(assert (= source_camera_perm_not_mic target_camera_perm_not_mic))

; motion_perm_covers_both: translation preserves property (matches Coq: Theorem)
(declare-fun source_motion_perm_covers_both () Bool)
(declare-fun target_motion_perm_covers_both () Bool)
(assert (= source_motion_perm_covers_both target_motion_perm_covers_both))

; sensor_reading_valid: translation preserves property (matches Coq: Theorem)
(declare-fun source_sensor_reading_valid () Bool)
(declare-fun target_sensor_reading_valid () Bool)
(assert (= source_sensor_reading_valid target_sensor_reading_valid))

; bounded_sensor_rate_valid: translation preserves property (matches Coq: Theorem)
(declare-fun source_bounded_sensor_rate_valid () Bool)
(declare-fun target_bounded_sensor_rate_valid () Bool)
(assert (= source_bounded_sensor_rate_valid target_bounded_sensor_rate_valid))

; revoke_all_blocks_all_types: translation preserves property (matches Coq: Theorem)
(declare-fun source_revoke_all_blocks_all_types () Bool)
(declare-fun target_revoke_all_blocks_all_types () Bool)
(assert (= source_revoke_all_blocks_all_types target_revoke_all_blocks_all_types))

; gps_independent_of_camera: translation preserves property (matches Coq: Theorem)
(declare-fun source_gps_independent_of_camera () Bool)
(declare-fun target_gps_independent_of_camera () Bool)
(assert (= source_gps_independent_of_camera target_gps_independent_of_camera))

; Verify all translation validations are satisfiable
(check-sat)
(exit)
